21622.60 1
40 99 21 32 11 71 24 3 55 96 80 16 14 29 26 79 17 51 84 72 70 38 90 8 22 52 18 23 49 82 94 30 46 45 36 1 60 33 97 93 12 0 65 15 68 48 41 59 85 6 63 9 53 42 98 67 78 86 10 75 58 27 31 56 81 73 95 61 89 2 50 34 76 64 62 28 69 13 4 91 57 66 74 39 83 7 47 37 77 88 87 20 5 92 54 35 44 43 25 19
